NAME = AISearchfile180,
TOURSIZE = 180,
LENGTH = 3720,
34,27,168,149,105,120,117,72,32,142,52,80,155,150,92,81,85,107,114,130,75,159,176,145,74,70,162,71,180,144,1,137,174,53,44,94,24,104,157,170,146,160,172,14,97,6,51,106,111,67,129,62,9,128,93,147,103,173,13,19,110,96,73,7,131,18,100,47,61,57,50,133,31,152,46,139,83,151,10,115,22,56,11,12,116,63,153,45,20,8,4,158,86,84,122,21,89,177,64,77,25,66,36,171,136,68,164,134,119,91,49,140,26,3,30,28,37,178,76,99,98,102,82,126,39,161,43,101,60,48,132,17,2,141,148,40,16,90,42,59,41,169,127,38,113,125,54,167,35,79,109,179,124,165,23,143,58,166,163,29,69,55,95,88,154,65,135,112,123,87,121,156,108,138,33,15,78,175,5,118